; benchmark generated from python API
(set-info :status unknown)
(declare-datatypes ((IntState 0)) (((Mk1 (val1 Int)) (Mk2 (val2 Int)))))
 (declare-fun c_main_~k~6 () Int)
(declare-fun c_main_~j~6 () Int)
(declare-fun c_main_~i~6 () Int)
(assert
 (let (($x113 (exists ((main_~i~6_st IntState) (val!181 Int) )(let ((?x56 (val2 main_~i~6_st)))
 (let (($x60 (<= ?x56 2)))
 (let (($x77 (and (<= c_main_~j~6 (+ (* 2 ?x56) 1)) $x60 (<= ?x56 c_main_~k~6))))
 (let (($x52 (not (= main_~i~6_st (Mk1 val!181)))))
 (and $x52 $x77))))))
 ))
 (let (($x88 (<= c_main_~j~6 (+ (* 2 c_main_~i~6) 1))))
 (let (($x91 (<= c_main_~i~6 2)))
 (let ((?x93 (* 2 c_main_~i~6)))
 (let (($x163 (<= c_main_~j~6 ?x93)))
 (let (($x104 (<= c_main_~i~6 1)))
 (let (($x74 (exists ((v_nnf_10 Int) )(let (($x138 (<= v_nnf_10 2)))
 (let (($x172 (<= c_main_~j~6 (+ (* 2 v_nnf_10) 1))))
 (and (<= (+ v_nnf_10 1) c_main_~k~6) $x172 $x138))))
 ))
 (and (and $x91 $x74 $x88 $x104 $x163) (not (and $x91 $x88 $x113)))))))))))
(check-sat)
